155
300
210	5
209	1
208	1
207	5
206	1
205	1
204	1
203	5
202	3
201	2
200	1
199	4
197	3
196	3
195	3
194	5
193	4
192	1
191	1
190	3
189	1
188	5
186	3
185	3
183	2
182	2
181	3
180	1
179	1
178	1
177	2
176	3
175	2
174	1
173	2
172	3
171	1
170	4
169	3
168	3
167	7
166	1
165	2
164	5
163	2
162	2
160	2
159	2
158	5
157	1
156	2
155	2
154	3
153	2
152	1
151	2
150	2
149	1
148	1
147	4
146	1
145	1
144	3
143	4
142	1
141	3
137	1
136	2
135	1
133	2
132	2
131	6
130	2
129	4
128	2
127	2
126	2
125	2
124	3
123	1
122	3
121	6
119	4
118	3
117	4
116	3
115	5
114	4
112	2
110	1
109	3
108	2
107	1
105	4
104	3
103	2
102	2
101	4
100	2
98	5
97	4
94	3
93	3
92	2
91	4
90	2
89	3
88	2
87	3
85	4
84	3
83	3
82	3
81	7
79	1
77	2
76	2
75	3
74	1
73	3
71	4
70	3
69	1
68	3
67	1
66	2
65	2
64	1
63	2
62	3
61	2
58	4
57	2
56	3
55	3
54	1
53	3
52	4
50	4
48	3
47	1
46	4
45	1
44	1
43	2
42	3
41	2
40	2
39	2
37	5
36	1
34	3
33	2
32	3
30	3
